unsat
(:binary-propagations  55
 :conflicts            1
 :final-checks         1
 :max-generation       1
 :max-memory           36.74
 :memory               24.23
 :mk-bool-var          8603
 :mk-clause            3019
 :mk-clause-binary     12535
 :num-allocs           410340102
 :num-checks           1
 :propagations         55
 :quant-instantiations 1892
 :restarts             1
 :rlimit-count         1361145
 :time                 0.28)
